<number of tasks>
70

<cycle time>
320

<task times>
1 17
2 66
3 54
4 52
5 6
6 88
7 21
8 128
9 68
10 70
11 85
12 21
13 134
14 135
15 94
16 90
17 50
18 143
19 19
20 54
21 50
22 40
23 73
24 12
25 152
26 42
27 45
28 74
29 26
30 11
31 31
32 50
33 102
34 46
35 35
36 40
37 2
38 1
39 3
40 13
41 16
42 25
43 21
44 43
45 30
46 83
47 89
48 56
49 59
50 43
51 11
52 26
53 44
54 121
55 38
56 68
57 22
58 7
59 16
60 32
61 25
62 27
63 156
64 28
65 15
66 26
67 18
68 72
69 23
70 27

<precedence relations>
1,2
1,41
1,69
1,70
2,3
3,4
3,68
4,6
4,7
5,6
5,24
5,30
6,8
7,8
8,12
9,10
10,11
11,12
12,13
12,14
13,23
14,23
15,16
16,17
16,18
17,19
18,19
19,20
19,22
19,57
20,21
21,23
22,23
23,25
23,31
23,33
24,25
25,26
25,27
25,28
25,29
26,35
27,35
28,35
29,35
30,31
31,32
32,35
33,34
34,35
35,36
35,44
35,48
35,51
35,53
35,56
35,60
35,61
35,62
36,37
37,38
38,39
39,40
40,42
41,42
42,43
43,50
44,45
45,46
46,47
47,50
48,49
49,50
51,52
52,54
53,54
54,55
57,58
58,59
59,60
61,65
62,63
63,64
64,65
64,66
64,67

<setup times forward>
1,9:4
1,10:4
1,11:1
1,16:4
1,17:1
1,18:2
1,19:1
1,20:1
1,21:1
1,22:1
1,30:3
1,57:1
1,58:1
1,59:3
1,69:1
1,70:2
2,9:4
2,10:4
2,11:1
2,16:4
2,17:1
2,18:2
2,19:1
2,20:1
2,21:1
2,22:1
2,30:3
2,57:1
2,58:1
2,59:3
2,69:1
2,70:2
3,9:4
3,10:4
3,11:1
3,16:4
3,17:1
3,18:2
3,19:1
3,20:1
3,21:1
3,22:1
3,30:3
3,57:1
3,58:1
3,59:3
3,68:3
3,69:1
3,70:2
4,6:4
4,7:2
4,9:4
4,10:4
4,11:1
4,16:4
4,17:1
4,18:2
4,19:1
4,20:1
4,21:1
4,22:1
4,30:3
4,57:1
4,58:1
4,59:3
4,68:3
4,69:1
4,70:2
5,6:4
5,7:2
5,9:4
5,10:4
5,11:1
5,16:4
5,17:1
5,18:2
5,19:1
5,20:1
5,21:1
5,22:1
5,30:3
5,57:1
5,58:1
5,59:3
5,68:3
5,69:1
5,70:2
6,7:6
6,8:6
6,11:3
6,15:4
6,17:3
6,18:6
6,19:3
6,20:3
6,21:3
6,22:3
6,24:4
6,30:7
6,41:4
6,57:3
6,58:3
6,59:7
6,68:7
6,69:3
6,70:6
7,5:2
7,6:6
7,9:6
7,10:6
7,11:3
7,15:2
7,16:6
7,17:3
7,19:3
7,20:3
7,21:3
7,22:3
7,24:2
7,30:1
7,41:2
7,57:3
7,58:3
7,59:1
7,68:1
7,69:3
8,9:6
8,10:6
8,11:3
8,12:3
8,15:2
8,16:6
8,17:3
8,19:3
8,20:3
8,21:3
8,22:3
8,24:2
8,30:1
8,41:2
8,57:3
8,58:3
8,59:1
8,68:1
8,69:3
9,1:4
9,2:4
9,3:4
9,4:4
9,5:4
9,7:6
9,8:6
9,15:4
9,17:3
9,18:6
9,19:3
9,20:3
9,21:3
9,22:3
9,24:4
9,30:7
9,41:4
9,57:3
9,58:3
9,59:7
9,68:7
9,69:3
9,70:6
10,1:4
10,2:4
10,3:4
10,4:4
10,5:4
10,7:6
10,8:6
10,11:3
10,15:4
10,17:3
10,18:6
10,19:3
10,20:3
10,21:3
10,22:3
10,24:4
10,30:7
10,41:4
10,57:3
10,58:3
10,59:7
10,68:7
10,69:3
10,70:6
11,1:1
11,2:1
11,3:1
11,4:1
11,5:1
11,6:3
11,7:3
11,8:3
11,15:1
11,16:3
11,18:3
11,24:1
11,30:4
11,41:1
11,59:4
11,68:4
11,70:3
12,15:1
12,16:3
12,18:3
12,24:1
12,30:4
12,41:1
12,59:4
12,68:4
12,70:3
13,15:1
13,16:3
13,18:3
13,23:4
13,24:1
13,30:4
13,41:1
13,59:4
13,68:4
13,70:3
14,15:1
14,16:3
14,18:3
14,23:4
14,24:1
14,30:4
14,41:1
14,59:4
14,68:4
14,70:3
15,6:4
15,7:2
15,8:2
15,9:4
15,10:4
15,11:1
15,12:1
15,13:1
15,14:1
15,16:4
15,30:3
15,68:3
15,69:1
15,70:2
16,1:4
16,2:4
16,3:4
16,4:4
16,5:4
16,7:6
16,8:6
16,11:3
16,12:3
16,13:3
16,14:3
16,17:3
16,18:6
16,24:4
16,30:7
16,41:4
16,68:7
16,69:3
16,70:6
17,1:1
17,2:1
17,3:1
17,4:1
17,5:1
17,6:3
17,7:3
17,8:3
17,9:3
17,10:3
17,18:3
17,24:1
17,30:4
17,41:1
17,68:4
17,70:3
18,1:2
18,2:2
18,3:2
18,4:2
18,5:2
18,6:6
18,9:6
18,10:6
18,11:3
18,12:3
18,13:3
18,14:3
18,17:3
18,19:3
18,24:2
18,30:1
18,41:2
18,68:1
18,69:3
19,1:1
19,2:1
19,3:1
19,4:1
19,5:1
19,6:3
19,7:3
19,8:3
19,9:3
19,10:3
19,24:1
19,30:4
19,41:1
19,68:4
19,70:3
20,1:1
20,2:1
20,3:1
20,4:1
20,5:1
20,6:3
20,7:3
20,8:3
20,9:3
20,10:3
20,24:1
20,30:4
20,41:1
20,59:4
20,68:4
20,70:3
21,1:1
21,2:1
21,3:1
21,4:1
21,5:1
21,6:3
21,7:3
21,8:3
21,9:3
21,10:3
21,23:4
21,24:1
21,30:4
21,41:1
21,59:4
21,68:4
21,70:3
22,1:1
22,2:1
22,3:1
22,4:1
22,5:1
22,6:3
22,7:3
22,8:3
22,9:3
22,10:3
22,23:4
22,24:1
22,30:4
22,41:1
22,59:4
22,68:4
22,70:3
23,24:3
23,25:2
23,31:2
23,41:3
23,57:4
23,58:4
23,69:4
23,70:1
24,6:4
24,7:2
24,8:2
24,9:4
24,10:4
24,11:1
24,12:1
24,13:1
24,14:1
24,16:4
24,17:1
24,18:2
24,19:1
24,20:1
24,21:1
24,22:1
24,23:3
24,25:1
24,30:3
24,31:1
24,32:1
24,33:3
24,34:3
24,57:1
24,58:1
24,59:3
24,68:3
24,69:1
24,70:2
25,28:4
25,29:4
25,30:2
25,33:2
25,34:2
25,41:1
25,57:2
25,58:2
25,59:2
25,68:2
25,69:2
25,70:1
26,28:4
26,29:4
26,30:2
26,33:2
26,34:2
26,35:4
26,41:1
26,57:2
26,58:2
26,59:2
26,68:2
26,69:2
26,70:1
27,28:4
27,29:4
27,30:2
27,33:2
27,34:2
27,35:4
27,41:1
27,57:2
27,58:2
27,59:2
27,68:2
27,69:2
27,70:1
28,26:4
28,27:4
28,30:2
28,31:4
28,32:4
28,33:2
28,34:2
28,41:5
28,57:6
28,58:6
28,59:2
28,68:2
28,69:6
28,70:3
29,26:4
29,27:4
29,30:2
29,31:4
29,32:4
29,33:2
29,34:2
29,41:5
29,57:6
29,58:6
29,59:2
29,68:2
29,69:6
29,70:3
30,1:3
30,2:3
30,3:3
30,4:3
30,6:7
30,7:1
30,8:1
30,9:7
30,10:7
30,11:4
30,12:4
30,13:4
30,14:4
30,15:3
30,16:7
30,17:4
30,18:1
30,19:4
30,20:4
30,21:4
30,22:4
30,24:3
30,25:2
30,26:2
30,27:2
30,28:2
30,29:2
30,31:2
30,41:3
30,57:4
30,58:4
30,69:4
30,70:1
31,24:1
31,28:4
31,29:4
31,33:2
31,34:2
31,41:1
31,57:2
31,58:2
31,59:2
31,68:2
31,69:2
31,70:1
32,24:1
32,28:4
32,29:4
32,33:2
32,34:2
32,35:4
32,41:1
32,57:2
32,58:2
32,59:2
32,68:2
32,69:2
32,70:1
33,24:3
33,25:2
33,26:2
33,27:2
33,28:2
33,29:2
33,31:2
33,32:2
33,41:3
33,57:4
33,58:4
33,69:4
33,70:1
34,24:3
34,25:2
34,26:2
34,27:2
34,28:2
34,29:2
34,31:2
34,32:2
34,35:2
34,41:3
34,57:4
34,58:4
34,69:4
34,70:1
35,36:7
35,41:5
35,48:3
35,51:3
35,53:3
35,56:3
35,57:6
35,58:6
35,59:2
35,60:7
35,61:3
35,68:2
35,69:6
35,70:3
36,41:2
36,44:7
36,45:7
36,46:7
36,48:4
36,49:8
36,51:4
36,52:4
36,53:4
36,54:8
36,55:8
36,56:4
36,57:1
36,58:1
36,59:5
36,61:4
36,62:7
36,64:4
36,65:8
36,66:8
36,67:8
36,68:5
36,69:1
36,70:4
37,41:2
37,44:7
37,45:7
37,46:7
37,48:4
37,49:8
37,51:4
37,52:4
37,53:4
37,54:8
37,55:8
37,56:4
37,57:1
37,58:1
37,59:5
37,61:4
37,62:7
37,64:4
37,65:8
37,66:8
37,67:8
37,68:5
37,69:1
37,70:4
38,39:4
38,41:2
38,44:7
38,45:7
38,46:7
38,48:4
38,49:8
38,51:4
38,52:4
38,53:4
38,54:8
38,55:8
38,56:4
38,57:1
38,58:1
38,59:5
38,61:4
38,62:7
38,64:4
38,65:8
38,66:8
38,67:8
38,68:5
38,69:1
38,70:4
39,41:2
39,44:3
39,45:3
39,46:3
39,47:4
39,49:4
39,54:4
39,55:4
39,57:3
39,58:3
39,59:1
39,60:4
39,62:3
39,63:4
39,65:4
39,66:4
39,67:4
39,68:1
39,69:3
40,41:2
40,44:3
40,45:3
40,46:3
40,47:4
40,49:4
40,54:4
40,55:4
40,57:3
40,58:3
40,59:1
40,60:4
40,62:3
40,63:4
40,65:4
40,66:4
40,67:4
40,68:1
40,69:3
41,6:4
41,7:2
41,8:2
41,9:4
41,10:4
41,11:1
41,12:1
41,13:1
41,14:1
41,16:4
41,17:1
41,18:2
41,19:1
41,20:1
41,21:1
41,22:1
41,23:3
41,25:1
41,26:1
41,27:1
41,28:5
41,29:5
41,30:3
41,31:1
41,32:1
41,33:3
41,34:3
41,35:5
41,36:2
41,37:2
41,38:2
41,39:2
41,40:2
41,42:2
41,44:5
41,45:5
41,46:5
41,47:2
41,48:2
41,49:6
41,51:2
41,52:2
41,53:2
41,54:6
41,55:6
41,56:2
41,57:1
41,58:1
41,59:3
41,60:2
41,61:2
41,62:5
41,63:2
41,64:2
41,65:6
41,66:6
41,67:6
41,68:3
41,69:1
41,70:2
42,44:3
42,45:3
42,46:3
42,47:4
42,49:4
42,54:4
42,55:4
42,57:3
42,58:3
42,59:1
42,60:4
42,62:3
42,63:4
42,65:4
42,66:4
42,67:4
42,68:1
42,69:3
43,44:3
43,45:3
43,46:3
43,47:4
43,49:4
43,50:4
43,54:4
43,55:4
43,57:3
43,58:3
43,59:1
43,60:4
43,62:3
43,63:4
43,65:4
43,66:4
43,67:4
43,68:1
43,69:3
44,36:7
44,37:7
44,38:7
44,39:3
44,40:3
44,41:5
44,42:3
44,43:3
44,48:3
44,49:1
44,51:3
44,52:3
44,53:3
44,54:1
44,55:1
44,56:3
44,57:6
44,58:6
44,59:2
44,60:7
44,61:3
44,63:7
44,64:3
44,65:1
44,66:1
44,67:1
44,68:2
44,69:6
44,70:3
45,36:7
45,37:7
45,38:7
45,39:3
45,40:3
45,41:5
45,42:3
45,43:3
45,48:3
45,49:1
45,51:3
45,52:3
45,53:3
45,54:1
45,55:1
45,56:3
45,57:6
45,58:6
45,59:2
45,60:7
45,61:3
45,63:7
45,64:3
45,65:1
45,66:1
45,67:1
45,68:2
45,69:6
45,70:3
46,36:7
46,37:7
46,38:7
46,39:3
46,40:3
46,41:5
46,42:3
46,43:3
46,47:7
46,48:3
46,49:1
46,51:3
46,52:3
46,53:3
46,54:1
46,55:1
46,56:3
46,57:6
46,58:6
46,59:2
46,60:7
46,61:3
46,63:7
46,64:3
46,65:1
46,66:1
46,67:1
46,68:2
46,69:6
46,70:3
47,39:4
47,40:4
47,41:2
47,42:4
47,43:4
47,48:4
47,49:8
47,50:8
47,51:4
47,52:4
47,53:4
47,54:8
47,55:8
47,56:4
47,57:1
47,58:1
47,59:5
47,61:4
47,62:7
47,64:4
47,65:8
47,66:8
47,67:8
47,68:5
47,69:1
47,70:4
48,36:4
48,37:4
48,38:4
48,41:2
48,44:3
48,45:3
48,46:3
48,47:4
48,49:4
48,54:4
48,55:4
48,57:3
48,58:3
48,59:1
48,60:4
48,62:3
48,63:4
48,65:4
48,66:4
48,67:4
48,68:1
48,69:3
49,36:8
49,37:8
49,38:8
49,39:4
49,40:4
49,41:6
49,42:4
49,43:4
49,44:1
49,45:1
49,46:1
49,47:8
49,51:4
49,52:4
49,53:4
49,56:4
49,57:7
49,58:7
49,59:3
49,60:8
49,61:4
49,62:1
49,63:8
49,64:4
49,68:3
49,69:7
49,70:4
50,51:4
50,52:4
50,53:4
50,56:4
50,57:7
50,58:7
50,59:3
50,60:8
50,61:4
50,62:1
50,63:8
50,64:4
50,68:3
50,69:7
50,70:4
51,36:4
51,37:4
51,38:4
51,41:2
51,44:3
51,45:3
51,46:3
51,47:4
51,49:4
51,50:4
51,57:3
51,58:3
51,59:1
51,60:4
51,62:3
51,63:4
51,65:4
51,66:4
51,67:4
51,68:1
51,69:3
52,36:4
52,37:4
52,38:4
52,41:2
52,44:3
52,45:3
52,46:3
52,47:4
52,49:4
52,50:4
52,54:4
52,57:3
52,58:3
52,59:1
52,60:4
52,62:3
52,63:4
52,65:4
52,66:4
52,67:4
52,68:1
52,69:3
53,36:4
53,37:4
53,38:4
53,41:2
53,44:3
53,45:3
53,46:3
53,47:4
53,49:4
53,50:4
53,54:4
53,57:3
53,58:3
53,59:1
53,60:4
53,62:3
53,63:4
53,65:4
53,66:4
53,67:4
53,68:1
53,69:3
54,36:8
54,37:8
54,38:8
54,39:4
54,40:4
54,41:6
54,42:4
54,43:4
54,44:1
54,45:1
54,46:1
54,47:8
54,48:4
54,56:4
54,57:7
54,58:7
54,59:3
54,60:8
54,61:4
54,62:1
54,63:8
54,64:4
54,68:3
54,69:7
54,70:4
55,36:8
55,37:8
55,38:8
55,39:4
55,40:4
55,41:6
55,42:4
55,43:4
55,44:1
55,45:1
55,46:1
55,47:8
55,48:4
55,56:4
55,57:7
55,58:7
55,59:3
55,60:8
55,61:4
55,62:1
55,63:8
55,64:4
55,68:3
55,69:7
55,70:4
56,36:4
56,37:4
56,38:4
56,41:2
56,44:3
56,45:3
56,46:3
56,47:4
56,49:4
56,50:4
56,54:4
56,55:4
56,57:3
56,58:3
56,59:1
56,60:4
56,62:3
56,63:4
56,65:4
56,66:4
56,67:4
56,68:1
56,69:3
57,1:1
57,2:1
57,3:1
57,4:1
57,5:1
57,6:3
57,7:3
57,8:3
57,9:3
57,10:3
57,23:4
57,24:1
57,25:2
57,26:2
57,27:2
57,28:6
57,29:6
57,30:4
57,31:2
57,32:2
57,33:4
57,34:4
57,35:6
57,36:1
57,37:1
57,38:1
57,39:3
57,40:3
57,41:1
57,42:3
57,43:3
57,44:6
57,45:6
57,46:6
57,47:1
57,48:3
57,49:7
57,50:7
57,51:3
57,52:3
57,53:3
57,54:7
57,55:7
57,56:3
57,61:3
57,62:6
57,63:1
57,64:3
57,65:7
57,66:7
57,67:7
57,68:4
57,70:3
58,1:1
58,2:1
58,3:1
58,4:1
58,5:1
58,6:3
58,7:3
58,8:3
58,9:3
58,10:3
58,23:4
58,24:1
58,25:2
58,26:2
58,27:2
58,28:6
58,29:6
58,30:4
58,31:2
58,32:2
58,33:4
58,34:4
58,35:6
58,36:1
58,37:1
58,38:1
58,39:3
58,40:3
58,41:1
58,42:3
58,43:3
58,44:6
58,45:6
58,46:6
58,47:1
58,48:3
58,49:7
58,50:7
58,51:3
58,52:3
58,53:3
58,54:7
58,55:7
58,56:3
58,59:4
58,61:3
58,62:6
58,63:1
58,64:3
58,65:7
58,66:7
58,67:7
58,68:4
58,70:3
59,1:3
59,2:3
59,3:3
59,4:3
59,5:3
59,6:7
59,7:1
59,8:1
59,9:7
59,10:7
59,11:4
59,12:4
59,13:4
59,14:4
59,20:4
59,21:4
59,22:4
59,24:3
59,25:2
59,26:2
59,27:2
59,28:2
59,29:2
59,31:2
59,32:2
59,35:2
59,36:5
59,37:5
59,38:5
59,39:1
59,40:1
59,41:3
59,42:1
59,43:1
59,44:2
59,45:2
59,46:2
59,47:5
59,48:1
59,49:3
59,50:3
59,51:1
59,52:1
59,53:1
59,54:3
59,55:3
59,56:1
59,60:5
59,61:1
59,62:2
59,63:5
59,64:1
59,65:3
59,66:3
59,67:3
59,69:4
59,70:1
60,39:4
60,40:4
60,41:2
60,42:4
60,43:4
60,44:7
60,45:7
60,46:7
60,48:4
60,49:8
60,50:8
60,51:4
60,52:4
60,53:4
60,54:8
60,55:8
60,56:4
60,61:4
60,62:7
60,64:4
60,65:8
60,66:8
60,67:8
60,68:5
60,69:1
60,70:4
61,36:4
61,37:4
61,38:4
61,41:2
61,44:3
61,45:3
61,46:3
61,47:4
61,49:4
61,50:4
61,54:4
61,55:4
61,57:3
61,58:3
61,59:1
61,60:4
61,62:3
61,63:4
61,65:4
61,66:4
61,67:4
61,68:1
61,69:3
62,36:7
62,37:7
62,38:7
62,39:3
62,40:3
62,41:5
62,42:3
62,43:3
62,47:7
62,48:3
62,49:1
62,50:1
62,51:3
62,52:3
62,53:3
62,54:1
62,55:1
62,56:3
62,57:6
62,58:6
62,59:2
62,60:7
62,61:3
62,63:7
62,68:2
62,69:6
62,70:3
63,39:4
63,40:4
63,41:2
63,42:4
63,43:4
63,44:7
63,45:7
63,46:7
63,48:4
63,49:8
63,50:8
63,51:4
63,52:4
63,53:4
63,54:8
63,55:8
63,56:4
63,57:1
63,58:1
63,59:5
63,61:4
63,64:4
63,68:5
63,69:1
63,70:4
64,36:4
64,37:4
64,38:4
64,41:2
64,44:3
64,45:3
64,46:3
64,47:4
64,49:4
64,50:4
64,54:4
64,55:4
64,57:3
64,58:3
64,59:1
64,60:4
64,65:4
64,66:4
64,67:4
64,68:1
64,69:3
65,36:8
65,37:8
65,38:8
65,39:4
65,40:4
65,41:6
65,42:4
65,43:4
65,44:1
65,45:1
65,46:1
65,47:8
65,48:4
65,51:4
65,52:4
65,53:4
65,56:4
65,57:7
65,58:7
65,59:3
65,60:8
65,68:3
65,69:7
65,70:4
66,36:8
66,37:8
66,38:8
66,39:4
66,40:4
66,41:6
66,42:4
66,43:4
66,44:1
66,45:1
66,46:1
66,47:8
66,48:4
66,51:4
66,52:4
66,53:4
66,56:4
66,57:7
66,58:7
66,59:3
66,60:8
66,61:4
66,68:3
66,69:7
66,70:4
67,36:8
67,37:8
67,38:8
67,39:4
67,40:4
67,41:6
67,42:4
67,43:4
67,44:1
67,45:1
67,46:1
67,47:8
67,48:4
67,51:4
67,52:4
67,53:4
67,56:4
67,57:7
67,58:7
67,59:3
67,60:8
67,61:4
67,68:3
67,69:7
67,70:4
68,4:3
68,5:3
68,6:7
68,7:1
68,8:1
68,9:7
68,10:7
68,11:4
68,12:4
68,13:4
68,14:4
68,15:3
68,16:7
68,17:4
68,18:1
68,19:4
68,20:4
68,21:4
68,22:4
68,24:3
68,25:2
68,26:2
68,27:2
68,28:2
68,29:2
68,31:2
68,32:2
68,35:2
68,36:5
68,37:5
68,38:5
68,39:1
68,40:1
68,41:3
68,42:1
68,43:1
68,44:2
68,45:2
68,46:2
68,47:5
68,48:1
68,49:3
68,50:3
68,51:1
68,52:1
68,53:1
68,54:3
68,55:3
68,56:1
68,57:4
68,58:4
68,60:5
68,61:1
68,62:2
68,63:5
68,64:1
68,65:3
68,66:3
68,67:3
68,69:4
68,70:1
69,2:1
69,3:1
69,4:1
69,5:1
69,6:3
69,7:3
69,8:3
69,9:3
69,10:3
69,15:1
69,16:3
69,18:3
69,23:4
69,24:1
69,25:2
69,26:2
69,27:2
69,28:6
69,29:6
69,30:4
69,31:2
69,32:2
69,33:4
69,34:4
69,35:6
69,36:1
69,37:1
69,38:1
69,39:3
69,40:3
69,41:1
69,42:3
69,43:3
69,44:6
69,45:6
69,46:6
69,47:1
69,48:3
69,49:7
69,50:7
69,51:3
69,52:3
69,53:3
69,54:7
69,55:7
69,56:3
69,59:4
69,60:1
69,61:3
69,62:6
69,63:1
69,64:3
69,65:7
69,66:7
69,67:7
69,68:4
69,70:3
70,2:2
70,3:2
70,4:2
70,5:2
70,6:6
70,9:6
70,10:6
70,11:3
70,12:3
70,13:3
70,14:3
70,15:2
70,16:6
70,17:3
70,19:3
70,20:3
70,21:3
70,22:3
70,23:1
70,24:2
70,25:1
70,26:1
70,27:1
70,28:3
70,29:3
70,30:1
70,31:1
70,32:1
70,33:1
70,34:1
70,35:3
70,36:4
70,37:4
70,38:4
70,41:2
70,44:3
70,45:3
70,46:3
70,47:4
70,49:4
70,50:4
70,54:4
70,55:4
70,57:3
70,58:3
70,59:1
70,60:4
70,62:3
70,63:4
70,65:4
70,66:4
70,67:4
70,68:1
70,69:3

<setup times backward>
1,18:2
1,30:3
1,59:3
2,18:2
2,30:3
2,59:3
2,70:2
3,18:2
3,30:3
3,59:3
3,70:2
4,18:2
4,30:3
4,59:3
4,68:3
4,70:2
5,7:2
5,18:2
5,59:3
5,68:3
5,70:2
6,1:4
6,2:4
6,3:4
6,4:4
6,5:4
6,7:6
6,11:3
6,15:4
6,17:3
6,18:6
6,19:3
6,20:3
6,21:3
6,22:3
6,24:4
6,30:7
6,41:4
6,57:3
6,58:3
6,59:7
6,68:7
6,69:3
6,70:6
7,30:1
7,59:1
7,68:1
8,30:1
8,59:1
8,68:1
9,1:4
9,2:4
9,3:4
9,4:4
9,5:4
9,7:6
9,8:6
9,15:4
9,17:3
9,18:6
9,19:3
9,20:3
9,21:3
9,22:3
9,24:4
9,30:7
9,41:4
9,57:3
9,58:3
9,59:7
9,68:7
9,69:3
9,70:6
10,1:4
10,2:4
10,3:4
10,4:4
10,5:4
10,7:6
10,8:6
10,15:4
10,17:3
10,18:6
10,19:3
10,20:3
10,21:3
10,22:3
10,24:4
10,30:7
10,41:4
10,57:3
10,58:3
10,59:7
10,68:7
10,69:3
10,70:6
11,1:1
11,2:1
11,3:1
11,4:1
11,5:1
11,7:3
11,8:3
11,15:1
11,18:3
11,24:1
11,30:4
11,41:1
11,59:4
11,68:4
11,70:3
12,1:1
12,2:1
12,3:1
12,4:1
12,5:1
12,7:3
12,8:3
12,15:1
12,18:3
12,24:1
12,30:4
12,41:1
12,59:4
12,68:4
12,70:3
13,1:1
13,2:1
13,3:1
13,4:1
13,5:1
13,7:3
13,8:3
13,15:1
13,18:3
13,24:1
13,30:4
13,41:1
13,59:4
13,68:4
13,70:3
14,1:1
14,2:1
14,3:1
14,4:1
14,5:1
14,7:3
14,8:3
14,15:1
14,18:3
14,24:1
14,30:4
14,41:1
14,59:4
14,68:4
14,70:3
15,7:2
15,8:2
15,30:3
15,68:3
15,70:2
16,1:4
16,2:4
16,3:4
16,4:4
16,5:4
16,7:6
16,8:6
16,11:3
16,12:3
16,13:3
16,14:3
16,15:4
16,24:4
16,30:7
16,41:4
16,68:7
16,69:3
16,70:6
17,1:1
17,2:1
17,3:1
17,4:1
17,5:1
17,7:3
17,8:3
17,15:1
17,18:3
17,24:1
17,30:4
17,41:1
17,68:4
17,70:3
18,30:1
18,68:1
19,1:1
19,2:1
19,3:1
19,4:1
19,5:1
19,7:3
19,8:3
19,15:1
19,18:3
19,24:1
19,30:4
19,41:1
19,68:4
19,70:3
20,1:1
20,2:1
20,3:1
20,4:1
20,5:1
20,7:3
20,8:3
20,15:1
20,18:3
20,24:1
20,30:4
20,41:1
20,59:4
20,68:4
20,70:3
21,1:1
21,2:1
21,3:1
21,4:1
21,5:1
21,7:3
21,8:3
21,15:1
21,18:3
21,24:1
21,30:4
21,41:1
21,59:4
21,68:4
21,70:3
22,1:1
22,2:1
22,3:1
22,4:1
22,5:1
22,7:3
22,8:3
22,15:1
22,18:3
22,24:1
22,30:4
22,41:1
22,59:4
22,68:4
22,70:3
24,7:2
24,8:2
24,18:2
24,23:3
24,30:3
24,31:1
24,32:1
24,33:3
24,34:3
24,59:3
24,68:3
24,70:2
25,7:1
25,8:1
25,18:1
25,23:2
25,30:2
25,33:2
25,34:2
25,59:2
25,68:2
25,70:1
26,7:1
26,8:1
26,18:1
26,23:2
26,28:4
26,29:4
26,30:2
26,33:2
26,34:2
26,59:2
26,68:2
26,70:1
27,7:1
27,8:1
27,18:1
27,23:2
27,28:4
27,29:4
27,30:2
27,33:2
27,34:2
27,59:2
27,68:2
27,70:1
30,28:2
30,29:2
31,7:1
31,8:1
31,18:1
31,23:2
31,28:4
31,29:4
31,30:2
31,33:2
31,34:2
31,59:2
31,68:2
31,70:1
32,7:1
32,8:1
32,18:1
32,23:2
32,28:4
32,29:4
32,30:2
32,33:2
32,34:2
32,59:2
32,68:2
32,70:1
33,28:2
33,29:2
34,28:2
34,29:2
36,1:2
36,2:2
36,3:2
36,4:2
36,5:2
36,7:4
36,8:4
36,11:1
36,12:1
36,13:1
36,14:1
36,15:2
36,17:1
36,18:4
36,19:1
36,20:1
36,21:1
36,22:1
36,23:5
36,24:2
36,25:3
36,26:3
36,27:3
36,28:7
36,29:7
36,30:5
36,31:3
36,32:3
36,33:5
36,34:5
36,35:7
36,41:2
36,44:7
36,45:7
36,46:7
36,48:4
36,49:8
36,51:4
36,52:4
36,53:4
36,54:8
36,55:8
36,56:4
36,57:1
36,58:1
36,59:5
36,61:4
36,62:7
36,64:4
36,65:8
36,66:8
36,67:8
36,68:5
36,69:1
36,70:4
37,1:2
37,2:2
37,3:2
37,4:2
37,5:2
37,7:4
37,8:4
37,11:1
37,12:1
37,13:1
37,14:1
37,15:2
37,17:1
37,18:4
37,19:1
37,20:1
37,21:1
37,22:1
37,23:5
37,24:2
37,25:3
37,26:3
37,27:3
37,28:7
37,29:7
37,30:5
37,31:3
37,32:3
37,33:5
37,34:5
37,35:7
37,41:2
37,44:7
37,45:7
37,46:7
37,48:4
37,49:8
37,51:4
37,52:4
37,53:4
37,54:8
37,55:8
37,56:4
37,57:1
37,58:1
37,59:5
37,61:4
37,62:7
37,64:4
37,65:8
37,66:8
37,67:8
37,68:5
37,69:1
37,70:4
38,1:2
38,2:2
38,3:2
38,4:2
38,5:2
38,7:4
38,8:4
38,11:1
38,12:1
38,13:1
38,14:1
38,15:2
38,17:1
38,18:4
38,19:1
38,20:1
38,21:1
38,22:1
38,23:5
38,24:2
38,25:3
38,26:3
38,27:3
38,28:7
38,29:7
38,30:5
38,31:3
38,32:3
38,33:5
38,34:5
38,35:7
38,41:2
38,44:7
38,45:7
38,46:7
38,48:4
38,49:8
38,51:4
38,52:4
38,53:4
38,54:8
38,55:8
38,56:4
38,57:1
38,58:1
38,59:5
38,61:4
38,62:7
38,64:4
38,65:8
38,66:8
38,67:8
38,68:5
38,69:1
38,70:4
39,23:1
39,28:3
39,29:3
39,30:1
39,33:1
39,34:1
39,35:3
39,44:3
39,45:3
39,46:3
39,49:4
39,54:4
39,55:4
39,59:1
39,62:3
39,65:4
39,66:4
39,67:4
39,68:1
40,23:1
40,28:3
40,29:3
40,30:1
40,33:1
40,34:1
40,35:3
40,44:3
40,45:3
40,46:3
40,49:4
40,54:4
40,55:4
40,59:1
40,62:3
40,65:4
40,66:4
40,67:4
40,68:1
41,7:2
41,8:2
41,18:2
41,23:3
41,25:1
41,26:1
41,27:1
41,28:5
41,29:5
41,30:3
41,31:1
41,32:1
41,33:3
41,34:3
41,35:5
41,39:2
41,40:2
41,44:5
41,45:5
41,46:5
41,48:2
41,49:6
41,51:2
41,52:2
41,53:2
41,54:6
41,55:6
41,56:2
41,59:3
41,61:2
41,62:5
41,64:2
41,65:6
41,66:6
41,67:6
41,68:3
41,70:2
42,23:1
42,28:3
42,29:3
42,30:1
42,33:1
42,34:1
42,35:3
42,44:3
42,45:3
42,46:3
42,49:4
42,54:4
42,55:4
42,59:1
42,62:3
42,65:4
42,66:4
42,67:4
42,68:1
43,23:1
43,28:3
43,29:3
43,30:1
43,33:1
43,34:1
43,35:3
43,44:3
43,45:3
43,46:3
43,49:4
43,54:4
43,55:4
43,59:1
43,62:3
43,65:4
43,66:4
43,67:4
43,68:1
44,49:1
44,54:1
44,55:1
44,65:1
44,66:1
44,67:1
45,49:1
45,54:1
45,55:1
45,65:1
45,66:1
45,67:1
46,49:1
46,54:1
46,55:1
46,65:1
46,66:1
46,67:1
47,1:2
47,2:2
47,3:2
47,4:2
47,5:2
47,7:4
47,8:4
47,11:1
47,12:1
47,13:1
47,14:1
47,15:2
47,17:1
47,18:4
47,19:1
47,20:1
47,21:1
47,22:1
47,23:5
47,24:2
47,25:3
47,26:3
47,27:3
47,28:7
47,29:7
47,30:5
47,31:3
47,32:3
47,33:5
47,34:5
47,35:7
47,39:4
47,40:4
47,41:2
47,42:4
47,43:4
47,44:7
47,45:7
47,46:7
47,48:4
47,49:8
47,51:4
47,52:4
47,53:4
47,54:8
47,55:8
47,56:4
47,57:1
47,58:1
47,59:5
47,61:4
47,62:7
47,64:4
47,65:8
47,66:8
47,67:8
47,68:5
47,69:1
47,70:4
48,23:1
48,28:3
48,29:3
48,30:1
48,33:1
48,34:1
48,35:3
48,44:3
48,45:3
48,46:3
48,54:4
48,55:4
48,59:1
48,62:3
48,65:4
48,66:4
48,67:4
48,68:1
51,23:1
51,28:3
51,29:3
51,30:1
51,33:1
51,34:1
51,35:3
51,44:3
51,45:3
51,46:3
51,49:4
51,50:4
51,59:1
51,62:3
51,65:4
51,66:4
51,67:4
51,68:1
52,23:1
52,28:3
52,29:3
52,30:1
52,33:1
52,34:1
52,35:3
52,44:3
52,45:3
52,46:3
52,49:4
52,50:4
52,59:1
52,62:3
52,65:4
52,66:4
52,67:4
52,68:1
53,23:1
53,28:3
53,29:3
53,30:1
53,33:1
53,34:1
53,35:3
53,44:3
53,45:3
53,46:3
53,49:4
53,50:4
53,59:1
53,62:3
53,65:4
53,66:4
53,67:4
53,68:1
56,23:1
56,28:3
56,29:3
56,30:1
56,33:1
56,34:1
56,35:3
56,44:3
56,45:3
56,46:3
56,49:4
56,50:4
56,54:4
56,55:4
56,59:1
56,62:3
56,65:4
56,66:4
56,67:4
56,68:1
57,1:1
57,2:1
57,3:1
57,4:1
57,5:1
57,7:3
57,8:3
57,15:1
57,18:3
57,23:4
57,24:1
57,25:2
57,26:2
57,27:2
57,28:6
57,29:6
57,30:4
57,31:2
57,32:2
57,33:4
57,34:4
57,35:6
57,39:3
57,40:3
57,41:1
57,42:3
57,43:3
57,44:6
57,45:6
57,46:6
57,48:3
57,49:7
57,50:7
57,51:3
57,52:3
57,53:3
57,54:7
57,55:7
57,56:3
57,61:3
57,62:6
57,64:3
57,65:7
57,66:7
57,67:7
57,68:4
57,70:3
58,1:1
58,2:1
58,3:1
58,4:1
58,5:1
58,7:3
58,8:3
58,15:1
58,18:3
58,23:4
58,24:1
58,25:2
58,26:2
58,27:2
58,28:6
58,29:6
58,30:4
58,31:2
58,32:2
58,33:4
58,34:4
58,35:6
58,39:3
58,40:3
58,41:1
58,42:3
58,43:3
58,44:6
58,45:6
58,46:6
58,48:3
58,49:7
58,50:7
58,51:3
58,52:3
58,53:3
58,54:7
58,55:7
58,56:3
58,61:3
58,62:6
58,64:3
58,65:7
58,66:7
58,67:7
58,68:4
58,70:3
59,28:2
59,29:2
59,35:2
59,44:2
59,45:2
59,46:2
59,49:3
59,50:3
59,54:3
59,55:3
59,62:2
59,65:3
59,66:3
59,67:3
60,1:2
60,2:2
60,3:2
60,4:2
60,5:2
60,7:4
60,8:4
60,11:1
60,12:1
60,13:1
60,14:1
60,15:2
60,17:1
60,18:4
60,19:1
60,20:1
60,21:1
60,22:1
60,23:5
60,24:2
60,25:3
60,26:3
60,27:3
60,28:7
60,29:7
60,30:5
60,31:3
60,32:3
60,33:5
60,34:5
60,35:7
60,39:4
60,40:4
60,41:2
60,42:4
60,43:4
60,44:7
60,45:7
60,46:7
60,48:4
60,49:8
60,50:8
60,51:4
60,52:4
60,53:4
60,54:8
60,55:8
60,56:4
60,57:1
60,58:1
60,59:5
60,61:4
60,62:7
60,64:4
60,65:8
60,66:8
60,67:8
60,68:5
60,69:1
60,70:4
61,23:1
61,28:3
61,29:3
61,30:1
61,33:1
61,34:1
61,35:3
61,44:3
61,45:3
61,46:3
61,49:4
61,50:4
61,54:4
61,55:4
61,59:1
61,62:3
61,66:4
61,67:4
61,68:1
62,49:1
62,50:1
62,54:1
62,55:1
63,1:2
63,2:2
63,3:2
63,4:2
63,5:2
63,7:4
63,8:4
63,11:1
63,12:1
63,13:1
63,14:1
63,15:2
63,17:1
63,18:4
63,19:1
63,20:1
63,21:1
63,22:1
63,23:5
63,24:2
63,25:3
63,26:3
63,27:3
63,28:7
63,29:7
63,30:5
63,31:3
63,32:3
63,33:5
63,34:5
63,35:7
63,39:4
63,40:4
63,41:2
63,42:4
63,43:4
63,44:7
63,45:7
63,46:7
63,48:4
63,49:8
63,50:8
63,51:4
63,52:4
63,53:4
63,54:8
63,55:8
63,56:4
63,57:1
63,58:1
63,59:5
63,61:4
63,62:7
63,68:5
63,69:1
63,70:4
64,23:1
64,28:3
64,29:3
64,30:1
64,33:1
64,34:1
64,35:3
64,44:3
64,45:3
64,46:3
64,49:4
64,50:4
64,54:4
64,55:4
64,59:1
64,62:3
64,68:1
68,28:2
68,29:2
68,35:2
68,44:2
68,45:2
68,46:2
68,49:3
68,50:3
68,54:3
68,55:3
68,62:2
68,65:3
68,66:3
68,67:3
69,1:1
69,2:1
69,3:1
69,4:1
69,5:1
69,7:3
69,8:3
69,15:1
69,18:3
69,23:4
69,24:1
69,25:2
69,26:2
69,27:2
69,28:6
69,29:6
69,30:4
69,31:2
69,32:2
69,33:4
69,34:4
69,35:6
69,39:3
69,40:3
69,41:1
69,42:3
69,43:3
69,44:6
69,45:6
69,46:6
69,48:3
69,49:7
69,50:7
69,51:3
69,52:3
69,53:3
69,54:7
69,55:7
69,56:3
69,59:4
69,61:3
69,62:6
69,64:3
69,65:7
69,66:7
69,67:7
69,68:4
69,70:3
70,23:1
70,28:3
70,29:3
70,30:1
70,33:1
70,34:1
70,35:3
70,44:3
70,45:3
70,46:3
70,49:4
70,50:4
70,54:4
70,55:4
70,59:1
70,62:3
70,65:4
70,66:4
70,67:4
70,68:1

<end>

<optimal SALBP-1 value>
11


<rand seed>
467321153

